%BLOCK LATTICE_CART
      13.364084111314973       0.000000000000000      -3.264947427233500
       0.000000000000000      13.643379999999999       0.000000000000000
       0.000000000000000       0.000000000000000      19.525250000000000
#FIX
%ENDBLOCK LATTICE_CART

%BLOCK POSITIONS_FRAC
  O   0.4964800000000000   0.5000000000000000   0.4187680000000000  # O   % NUM=144
 Ga   0.4964800000000000   0.5000000000000000   0.4187680000000000  # Ga  % NUM=96
%ENDBLOCK POSITIONS_FRAC

##SPECIES=Ga,O
#SLACK=0.25
#OVERLAP=0.1
#MINSEP=1.0 Ga-Ga=2.0 O-O=1.0 Ga-O=1.5 Ga-C=1.5

FIX_ALL_CELL : true
