ISTART = 0
ICHARG =2

ENCUT=520
EDIFF=1E-7
!EDIFFG=-1E-5
IBRION=-1

ISMEAR=0
SIGMA=0.1
PREC=Accurate

LREAL=Auto
LWAVE=.FALSE.
LCHARG=.FALSE.

NCORE=6