echo             screen 

units            metal
dimension        3
boundary         p p p
atom_style       atomic
neighbor         2. nsq

read_data        pos.data
mass            1   69.723
mass            2   15.999

pair_style       quip
pair_coeff       * * ../../LAMMPS_potential/gap_file.xml "Potential xml_label=GAP_2020_10_7_0_15_16_39_727" 31 8

### minimize
minimize        1.0e-4 1.0e-6 100 1000
write_data      minimized.data