%BLOCK LATTICE_CART
       3.555998264800630      14.223996718163800       0.000000000000000
       0.000000000000000      39.116000000000000       0.000000000000000
       0.000000000000000       0.000000000000000      31.688300000000002
#FIX
%ENDBLOCK LATTICE_CART

%BLOCK POSITIONS_FRAC
  C  -0.0108878591506755   0.3670447993780446   0.4470544339491459 # C1 % POSAMP=0 NOMOVE FIX
  C  -0.0108878591506755   0.0034087993780441   0.4470544339491459 # C2 % POSAMP=0 NOMOVE FIX
  C  -0.0108878591506755   0.6397727993780437   0.4470544339491459 # C3 % POSAMP=0 NOMOVE FIX
  C  -0.0108878591506755   0.4579537993780445   0.4470544339491459 # C4 % POSAMP=0 NOMOVE FIX
  C  -0.0108878591506755   0.0943177993780440   0.4470544339491459 # C5 % POSAMP=0 NOMOVE FIX
  C  -0.0108878591506755   0.7306817993780446   0.4470544339491459 # C6 % POSAMP=0 NOMOVE FIX
  C  -0.0108878591506755   0.5488637993780446   0.4470544339491459 # C7 % POSAMP=0 NOMOVE FIX
  C  -0.0108878591506755   0.1852267993780446   0.4470544339491459 # C8 % POSAMP=0 NOMOVE FIX
  C  -0.0108878591506755   0.8215907993780437   0.4470544339491459 # C9 % POSAMP=0 NOMOVE FIX
  C  -0.0108878591506755   0.2761357993780445   0.4470544339491459 # C10 % POSAMP=0 NOMOVE FIX
  C  -0.0108878591506755   0.9124997993780446   0.4470544339491459 # C11 % POSAMP=0 NOMOVE FIX
  C   0.4891121408493250   0.2306817993780446   0.4470544339491459 # C12 % POSAMP=0 NOMOVE FIX
  C   0.4891121408493250   0.8670447993780448   0.4470544339491459 # C13 % POSAMP=0 NOMOVE FIX
  C   0.4891121408493250   0.5034087993780445   0.4470544339491459 # C14 % POSAMP=0 NOMOVE FIX
  C   0.4891121408493250   0.3215907993780446   0.4470544339491459 # C15 % POSAMP=0 NOMOVE FIX
  C   0.4891121408493250   0.9579537993780449   0.4470544339491459 # C16 % POSAMP=0 NOMOVE FIX
  C   0.4891121408493250   0.5943177993780446   0.4470544339491459 # C17 % POSAMP=0 NOMOVE FIX
  C   0.4891121408493250   0.4124997993780435   0.4470544339491459 # C18 % POSAMP=0 NOMOVE FIX
  C   0.4891121408493250   0.0488637993780441   0.4470544339491459 # C19 % POSAMP=0 NOMOVE FIX
  C   0.4891121408493250   0.6852267993780437   0.4470544339491459 # C20 % POSAMP=0 NOMOVE FIX
  C   0.4891121408493250   0.1397727993780445   0.4470544339491459 # C21 % POSAMP=0 NOMOVE FIX
  C   0.4891121408493250   0.7761357993780447   0.4470544339491459 # C22 % POSAMP=0 NOMOVE FIX
  C   0.4891121408493250   0.1852267993780447   0.3909424339491459 # C23 % POSAMP=0 NOMOVE FIX
  C   0.4891121408493250   0.8215907993780447   0.3909424339491459 # C24 % POSAMP=0 NOMOVE FIX
  C   0.4891121408493250   0.4579537993780435   0.3909424339491459 # C25 % POSAMP=0 NOMOVE FIX
  C   0.4891121408493250   0.2761357993780446   0.3909424339491459 # C26 % POSAMP=0 NOMOVE FIX
  C   0.4891121408493250   0.9124997993780448   0.3909424339491459 # C27 % POSAMP=0 NOMOVE FIX
  C   0.4891121408493250   0.5488637993780436   0.3909424339491459 # C28 % POSAMP=0 NOMOVE FIX
  C   0.4891121408493250   0.3670447993780446   0.3909424339491459 # C29 % POSAMP=0 NOMOVE FIX
  C   0.4891121408493250   0.0034087993780441   0.3909424339491459 # C30 % POSAMP=0 NOMOVE FIX
  C   0.4891121408493250   0.6397727993780435   0.3909424339491459 # C31 % POSAMP=0 NOMOVE FIX
  C   0.4891121408493250   0.0943177993780442   0.3909424339491459 # C32 % POSAMP=0 NOMOVE FIX
  C   0.4891121408493250   0.7306817993780446   0.3909424339491459 # C33 % POSAMP=0 NOMOVE FIX
  C  -0.0108878591506755   0.4124997993780445   0.3909424339491459 # C34 % POSAMP=0 NOMOVE FIX
  C  -0.0108878591506755   0.0488637993780440   0.3909424339491459 # C35 % POSAMP=0 NOMOVE FIX
  C  -0.0108878591506755   0.6852267993780437   0.3909424339491459 # C36 % POSAMP=0 NOMOVE FIX
  C  -0.0108878591506755   0.5034087993780446   0.3909424339491459 # C37 % POSAMP=0 NOMOVE FIX
  C  -0.0108878591506755   0.1397727993780445   0.3909424339491459 # C38 % POSAMP=0 NOMOVE FIX
  C  -0.0108878591506755   0.7761357993780447   0.3909424339491459 # C39 % POSAMP=0 NOMOVE FIX
  C  -0.0108878591506755   0.5943177993780436   0.3909424339491459 # C40 % POSAMP=0 NOMOVE FIX
  C  -0.0108878591506755   0.2306817993780446   0.3909424339491459 # C41 % POSAMP=0 NOMOVE FIX
  C  -0.0108878591506755   0.8670447993780446   0.3909424339491459 # C42 % POSAMP=0 NOMOVE FIX
  C  -0.0108878591506755   0.3215907993780445   0.3909424339491459 # C43 % POSAMP=0 NOMOVE FIX
  C  -0.0108878591506755   0.9579537993780447   0.3909424339491459 # C44 % POSAMP=0 NOMOVE FIX
  C   0.7391121408493250   0.1170447993780446   0.4189964339491458 # C45 % POSAMP=0 NOMOVE FIX
  C   0.7391121408493250   0.7534087993780445   0.4189964339491458 # C46 % POSAMP=0 NOMOVE FIX
  C   0.7391121408493250   0.3897727993780445   0.4189964339491458 # C47 % POSAMP=0 NOMOVE FIX
  C   0.7391121408493250   0.2079537993780445   0.4189964339491458 # C48 % POSAMP=0 NOMOVE FIX
  C   0.7391121408493250   0.8443177993780437   0.4189964339491458 # C49 % POSAMP=0 NOMOVE FIX
  C   0.7391121408493250   0.4806817993780447   0.4189964339491458 # C50 % POSAMP=0 NOMOVE FIX
  C   0.7391121408493250   0.2988637993780446   0.4189964339491458 # C51 % POSAMP=0 NOMOVE FIX
  C   0.7391121408493250   0.9352267993780439   0.4189964339491458 # C52 % POSAMP=0 NOMOVE FIX
  C   0.7391121408493250   0.5715907993780436   0.4189964339491458 # C53 % POSAMP=0 NOMOVE FIX
  C   0.7391121408493250   0.0261357993780441   0.4189964339491458 # C54 % POSAMP=0 NOMOVE FIX
  C   0.7391121408493250   0.6624997993780446   0.4189964339491458 # C55 % POSAMP=0 NOMOVE FIX
  C   0.2391121408493249   0.2988637993780446   0.3628894339491459 # C56 % POSAMP=0 NOMOVE FIX
  C   0.2391121408493249   0.9352267993780438   0.3628894339491459 # C57 % POSAMP=0 NOMOVE FIX
  C   0.2391121408493249   0.5715907993780446   0.3628894339491459 # C58 % POSAMP=0 NOMOVE FIX
  C   0.2391121408493249   0.3897727993780445   0.3628894339491459 # C59 % POSAMP=0 NOMOVE FIX
  C   0.2391121408493249   0.0261357993780440   0.3628894339491459 # C60 % POSAMP=0 NOMOVE FIX
  C   0.2391121408493249   0.6624997993780446   0.3628894339491459 # C61 % POSAMP=0 NOMOVE FIX
  C   0.2391121408493249   0.4806817993780446   0.3628894339491459 # C62 % POSAMP=0 NOMOVE FIX
  C   0.2391121408493249   0.1170447993780446   0.3628894339491459 # C63 % POSAMP=0 NOMOVE FIX
  C   0.2391121408493249   0.7534087993780447   0.3628894339491459 # C64 % POSAMP=0 NOMOVE FIX
  C   0.2391121408493249   0.2079537993780446   0.3628894339491459 # C65 % POSAMP=0 NOMOVE FIX
  C   0.2391121408493249   0.8443177993780445   0.3628894339491459 # C66 % POSAMP=0 NOMOVE FIX
  C   0.7391121408493250   0.1624997993780447   0.3628894339491459 # C67 % POSAMP=0 NOMOVE FIX
  C   0.7391121408493250   0.7988637993780448   0.3628894339491459 # C68 % POSAMP=0 NOMOVE FIX
  C   0.7391121408493250   0.4352267993780447   0.3628894339491459 # C69 % POSAMP=0 NOMOVE FIX
  C   0.7391121408493250   0.2534087993780445   0.3628894339491459 # C70 % POSAMP=0 NOMOVE FIX
  C   0.7391121408493250   0.8897727993780438   0.3628894339491459 # C71 % POSAMP=0 NOMOVE FIX
  C   0.7391121408493250   0.5261357993780447   0.3628894339491459 # C72 % POSAMP=0 NOMOVE FIX
  C   0.7391121408493250   0.3443177993780446   0.3628894339491459 # C73 % POSAMP=0 NOMOVE FIX
  C   0.7391121408493250   0.9806817993780437   0.3628894339491459 # C74 % POSAMP=0 NOMOVE FIX
  C   0.7391121408493250   0.6170447993780446   0.3628894339491459 # C75 % POSAMP=0 NOMOVE FIX
  C   0.7391121408493250   0.0715907993780442   0.3628894339491459 # C76 % POSAMP=0 NOMOVE FIX
  C   0.7391121408493250   0.7079537993780446   0.3628894339491459 # C77 % POSAMP=0 NOMOVE FIX
  C   0.2391121408493249   0.3443177993780446   0.4189964339491458 # C78 % POSAMP=0 NOMOVE FIX
  C   0.2391121408493249   0.9806817993780447   0.4189964339491458 # C79 % POSAMP=0 NOMOVE FIX
  C   0.2391121408493249   0.6170447993780447   0.4189964339491458 # C80 % POSAMP=0 NOMOVE FIX
  C   0.2391121408493249   0.4352267993780445   0.4189964339491458 # C81 % POSAMP=0 NOMOVE FIX
  C   0.2391121408493249   0.0715907993780442   0.4189964339491458 # C82 % POSAMP=0 NOMOVE FIX
  C   0.2391121408493249   0.7079537993780445   0.4189964339491458 # C83 % POSAMP=0 NOMOVE FIX
  C   0.2391121408493249   0.5261357993780446   0.4189964339491458 # C84 % POSAMP=0 NOMOVE FIX
  C   0.2391121408493249   0.1624997993780446   0.4189964339491458 # C85 % POSAMP=0 NOMOVE FIX
  C   0.2391121408493249   0.7988637993780446   0.4189964339491458 # C86 % POSAMP=0 NOMOVE FIX
  C   0.2391121408493249   0.2534087993780446   0.4189964339491458 # C87 % POSAMP=0 NOMOVE FIX
  C   0.2391121408493249   0.8897727993780437   0.4189964339491458 # C88 % POSAMP=0 NOMOVE FIX
  O   0.7440178591506731   0.6282662006219557   0.5102095660508543 # O1 % POSAMP=0 NOMOVE FIX
  O   0.7440178591506731   0.1282662006219545   0.5102095660508543 # O2 % POSAMP=0 NOMOVE FIX
  O   0.7440178591506731   0.6282662006219557   0.5948105660508553 # O3 % POSAMP=0 NOMOVE FIX
  O   0.7440178591506731   0.1282662006219545   0.5948105660508553 # O4 % POSAMP=0 NOMOVE FIX
  O   0.7777478591506730   0.8649212006219547   0.5525105660508553 # O5 % POSAMP=0 NOMOVE FIX
  O   0.7777478591506730   0.3649212006219546   0.5525105660508553 # O6 % POSAMP=0 NOMOVE FIX
  O   0.7777478591506730   0.8649212006219547   0.6371105660508543 # O7 % POSAMP=0 NOMOVE FIX
  O   0.7777478591506730   0.3649212006219546   0.6371105660508543 # O8 % POSAMP=0 NOMOVE FIX
  O   0.4699178591506730   0.1038612006219546   0.5102095660508543 # O9 % POSAMP=0 NOMOVE FIX
  O   0.4699178591506730   0.6038612006219557   0.5102095660508543 # O10 % POSAMP=0 NOMOVE FIX
  O   0.4699178591506730   0.1038612006219546   0.5948105660508553 # O11 % POSAMP=0 NOMOVE FIX
  O   0.4699178591506730   0.6038612006219557   0.5948105660508553 # O12 % POSAMP=0 NOMOVE FIX
  O   0.0518678591506727   0.8893162006219557   0.5525105660508553 # O13 % POSAMP=0 NOMOVE FIX
  O   0.0518678591506727   0.3893162006219546   0.5525105660508553 # O14 % POSAMP=0 NOMOVE FIX
  O   0.0518678591506727   0.8893162006219557   0.6371105660508543 # O15 % POSAMP=0 NOMOVE FIX
  O   0.0518678591506727   0.3893162006219546   0.6371105660508543 # O16 % POSAMP=0 NOMOVE FIX
  O   0.6249478591506730   0.6066512006219548   0.5525105660508553 # O17 % POSAMP=0 NOMOVE FIX
  O   0.6249478591506730   0.1066512006219546   0.5525105660508553 # O18 % POSAMP=0 NOMOVE FIX
  O   0.6249478591506730   0.6066512006219548   0.6371105660508543 # O19 % POSAMP=0 NOMOVE FIX
  O   0.6249478591506730   0.1066512006219546   0.6371105660508543 # O20 % POSAMP=0 NOMOVE FIX
  O   0.8968278591506730   0.8865312006219558   0.5102095660508543 # O21 % POSAMP=0 NOMOVE FIX
  O   0.8968278591506730   0.3865312006219547   0.5102095660508543 # O22 % POSAMP=0 NOMOVE FIX
  O   0.8968278591506730   0.8865312006219558   0.5948105660508553 # O23 % POSAMP=0 NOMOVE FIX
  O   0.8968278591506730   0.3865312006219547   0.5948105660508553 # O24 % POSAMP=0 NOMOVE FIX
  O   0.2440178591506730   0.1282662006219545   0.5525105660508553 # O25 % POSAMP=0 NOMOVE FIX
  O   0.2440178591506730   0.6282662006219556   0.5525105660508553 # O26 % POSAMP=0 NOMOVE FIX
  O   0.2440178591506730   0.1282662006219545   0.6371105660508543 # O27 % POSAMP=0 NOMOVE FIX
  O   0.2440178591506730   0.6282662006219556   0.6371105660508543 # O28 % POSAMP=0 NOMOVE FIX
  O   0.2777478591506729   0.3649212006219556   0.5102095660508543 # O29 % POSAMP=0 NOMOVE FIX
  O   0.2777478591506729   0.8649212006219547   0.5102095660508543 # O30 % POSAMP=0 NOMOVE FIX
  O   0.2777478591506729   0.3649212006219556   0.5948105660508553 # O31 % POSAMP=0 NOMOVE FIX
  O   0.2777478591506729   0.8649212006219547   0.5948105660508553 # O32 % POSAMP=0 NOMOVE FIX
  O   0.9699078591506730   0.1038662006219546   0.5525105660508553 # O33 % POSAMP=0 NOMOVE FIX
  O   0.9699078591506730   0.6038662006219557   0.5525105660508553 # O34 % POSAMP=0 NOMOVE FIX
  O   0.9699078591506730   0.1038662006219546   0.6371105660508543 # O35 % POSAMP=0 NOMOVE FIX
  O   0.9699078591506730   0.6038662006219557   0.6371105660508543 # O36 % POSAMP=0 NOMOVE FIX
  O   0.5518578591506730   0.8893212006219547   0.5102095660508543 # O37 % POSAMP=0 NOMOVE FIX
  O   0.5518578591506730   0.3893212006219546   0.5102095660508543 # O38 % POSAMP=0 NOMOVE FIX
  O   0.5518578591506730   0.8893212006219547   0.5948105660508553 # O39 % POSAMP=0 NOMOVE FIX
  O   0.5518578591506730   0.3893212006219546   0.5948105660508553 # O40 % POSAMP=0 NOMOVE FIX
  O   0.1249478591506729   0.1066512006219546   0.5102095660508543 # O41 % POSAMP=0 NOMOVE FIX
  O   0.1249478591506729   0.6066512006219557   0.5102095660508543 # O42 % POSAMP=0 NOMOVE FIX
  O   0.1249478591506729   0.1066512006219546   0.5948105660508553 # O43 % POSAMP=0 NOMOVE FIX
  O   0.1249478591506729   0.6066512006219557   0.5948105660508553 # O44 % POSAMP=0 NOMOVE FIX
  O   0.3968278591506729   0.3865312006219557   0.5525105660508553 # O45 % POSAMP=0 NOMOVE FIX
  O   0.3968278591506729   0.8865312006219557   0.5525105660508553 # O46 % POSAMP=0 NOMOVE FIX
  O   0.3968278591506729   0.3865312006219557   0.6371105660508543 # O47 % POSAMP=0 NOMOVE FIX
  O   0.3968278591506729   0.8865312006219557   0.6371105660508543 # O48 % POSAMP=0 NOMOVE FIX
 Ga   0.6713078591506730   0.9958412006219557   0.5525105660508553 # Ga1 % POSAMP=0 NOMOVE FIX
 Ga   0.6713078591506730   0.4958412006219548   0.5525105660508553 # Ga2 % POSAMP=0 NOMOVE FIX
 Ga   0.6713078591506730   0.9958412006219557   0.6371105660508543 # Ga3 % POSAMP=0 NOMOVE FIX
 Ga   0.6713078591506730   0.4958412006219548   0.6371105660508543 # Ga4 % POSAMP=0 NOMOVE FIX
 Ga   0.8504678591506731  -0.0026587993780450   0.5102095660508543 # Ga5 % POSAMP=0 NOMOVE FIX
 Ga   0.8504678591506731   0.4973412006219546   0.5102095660508543 # Ga6 % POSAMP=0 NOMOVE FIX
 Ga   0.8504678591506731  -0.0026587993780450   0.5948105660508553 # Ga7 % POSAMP=0 NOMOVE FIX
 Ga   0.8504678591506731   0.4973412006219546   0.5948105660508553 # Ga8 % POSAMP=0 NOMOVE FIX
 Ga   0.9874478591506731   0.8037512006219558   0.5102095660508543 # Ga9 % POSAMP=0 NOMOVE FIX
 Ga   0.9874478591506731   0.3037512006219547   0.5102095660508543 # Ga10 % POSAMP=0 NOMOVE FIX
 Ga   0.9874478591506731   0.8037512006219558   0.5948105660508553 # Ga11 % POSAMP=0 NOMOVE FIX
 Ga   0.9874478591506731   0.3037512006219547   0.5948105660508553 # Ga12 % POSAMP=0 NOMOVE FIX
 Ga   0.5343278591506729   0.6894312006219556   0.5525105660508553 # Ga13 % POSAMP=0 NOMOVE FIX
 Ga   0.5343278591506729   0.1894312006219546   0.5525105660508553 # Ga14 % POSAMP=0 NOMOVE FIX
 Ga   0.5343278591506729   0.6894312006219556   0.6371105660508543 # Ga15 % POSAMP=0 NOMOVE FIX
 Ga   0.5343278591506729   0.1894312006219546   0.6371105660508543 # Ga16 % POSAMP=0 NOMOVE FIX
 Ga   0.1713078591506730   0.9958412006219556   0.5102095660508543 # Ga17 % POSAMP=0 NOMOVE FIX
 Ga   0.1713078591506730   0.4958412006219546   0.5102095660508543 # Ga18 % POSAMP=0 NOMOVE FIX
 Ga   0.1713078591506730   0.9958412006219556   0.5948105660508553 # Ga19 % POSAMP=0 NOMOVE FIX
 Ga   0.1713078591506730   0.4958412006219546   0.5948105660508553 # Ga20 % POSAMP=0 NOMOVE FIX
 Ga   0.3504678591506729  -0.0026587993780450   0.5525105660508553 # Ga21 % POSAMP=0 NOMOVE FIX
 Ga   0.3504678591506729   0.4973412006219548   0.5525105660508553 # Ga22 % POSAMP=0 NOMOVE FIX
 Ga   0.3504678591506729  -0.0026587993780450   0.6371105660508543 # Ga23 % POSAMP=0 NOMOVE FIX
 Ga   0.3504678591506729   0.4973412006219548   0.6371105660508543 # Ga24 % POSAMP=0 NOMOVE FIX
 Ga   0.4874478591506729   0.3037512006219556   0.5525105660508553 # Ga25 % POSAMP=0 NOMOVE FIX
 Ga   0.4874478591506729   0.8037512006219547   0.5525105660508553 # Ga26 % POSAMP=0 NOMOVE FIX
 Ga   0.4874478591506729   0.3037512006219556   0.6371105660508543 # Ga27 % POSAMP=0 NOMOVE FIX
 Ga   0.4874478591506729   0.8037512006219547   0.6371105660508543 # Ga28 % POSAMP=0 NOMOVE FIX
 Ga   0.0343278591506727   0.1894312006219546   0.5102095660508543 # Ga29 % POSAMP=0 NOMOVE FIX
 Ga   0.0343278591506727   0.6894312006219556   0.5102095660508543 # Ga30 % POSAMP=0 NOMOVE FIX
 Ga   0.0343278591506727   0.1894312006219546   0.5948105660508553 # Ga31 % POSAMP=0 NOMOVE FIX
 Ga   0.0343278591506727   0.6894312006219556   0.5948105660508553 # Ga32 % POSAMP=0 NOMOVE FIX
 Ga   0.4999999993249948   0.5000000002689276   0.4786320001388525 # Ga33 % NUM=5-20 ZAMP=1 XAMP=-1 YAMP=-1
 O    0.4999999993249948   0.5000000002689276   0.4786320001388525 # O49  % NUM=5-20 ZAMP=1 XAMP=-1 YAMP=-1
 C    0.4999999993249948   0.5000000002689276   0.4786320001388525 # C89  % NUM=5-30 ZAMP=1 XAMP=-1 YAMP=-1
%ENDBLOCK POSITIONS_FRAC

##SPECIES=Ga,O,C
#SLACK=0.1
#OVERLAP=0.1
#MINSEP=1.0 Ga-Ga=2.0 O-O=1.8 Ga-O=1.5 C-C=1.54 Ga-C=1.8 C-O=1.5 

FIX_ALL_CELL : true

